param set_len = 18;
param target := 126049;
param values := [1] 2041 [2] 26677 [3] 4703 [4] 15086 [5] 9330 [6] 32037 [7] 5282 [8] 10064 [9] 31079 [10] 7531 [11] 6028 [12] 3561 [13] 21449 [14] 8290 [15] 7348 [16] 12385 [17] 29753 [18] 21174 ;
